c File: flat50_3_0.col
c
c SOURCE: Joseph Culberson (joe@cs.ualberta.ca)
c DESCRIPTION: Quasi-random coloring problem
c              generated with flatness = 0
c                             probability = 0.139
c                             known coloring = 3
c                             random seed = 1020
c              Creation Date:  Tue Jun  9 11:59:16 1998
c Maximum degree = 8 Minimum degree = 0
c p edge 50 115
c cnf created by edge2cnf
p cnf 150 545
-1 -2 0
-1 -3 0
-2 -3 0
1 2 3 0
-4 -5 0
-4 -6 0
-5 -6 0
4 5 6 0
-7 -8 0
-7 -9 0
-8 -9 0
7 8 9 0
-10 -11 0
-10 -12 0
-11 -12 0
10 11 12 0
-13 -14 0
-13 -15 0
-14 -15 0
13 14 15 0
-16 -17 0
-16 -18 0
-17 -18 0
16 17 18 0
-19 -20 0
-19 -21 0
-20 -21 0
19 20 21 0
-22 -23 0
-22 -24 0
-23 -24 0
22 23 24 0
-25 -26 0
-25 -27 0
-26 -27 0
25 26 27 0
-28 -29 0
-28 -30 0
-29 -30 0
28 29 30 0
-31 -32 0
-31 -33 0
-32 -33 0
31 32 33 0
-34 -35 0
-34 -36 0
-35 -36 0
34 35 36 0
-37 -38 0
-37 -39 0
-38 -39 0
37 38 39 0
-40 -41 0
-40 -42 0
-41 -42 0
40 41 42 0
-43 -44 0
-43 -45 0
-44 -45 0
43 44 45 0
-46 -47 0
-46 -48 0
-47 -48 0
46 47 48 0
-49 -50 0
-49 -51 0
-50 -51 0
49 50 51 0
-52 -53 0
-52 -54 0
-53 -54 0
52 53 54 0
-55 -56 0
-55 -57 0
-56 -57 0
55 56 57 0
-58 -59 0
-58 -60 0
-59 -60 0
58 59 60 0
-61 -62 0
-61 -63 0
-62 -63 0
61 62 63 0
-64 -65 0
-64 -66 0
-65 -66 0
64 65 66 0
-67 -68 0
-67 -69 0
-68 -69 0
67 68 69 0
-70 -71 0
-70 -72 0
-71 -72 0
70 71 72 0
-73 -74 0
-73 -75 0
-74 -75 0
73 74 75 0
-76 -77 0
-76 -78 0
-77 -78 0
76 77 78 0
-79 -80 0
-79 -81 0
-80 -81 0
79 80 81 0
-82 -83 0
-82 -84 0
-83 -84 0
82 83 84 0
-85 -86 0
-85 -87 0
-86 -87 0
85 86 87 0
-88 -89 0
-88 -90 0
-89 -90 0
88 89 90 0
-91 -92 0
-91 -93 0
-92 -93 0
91 92 93 0
-94 -95 0
-94 -96 0
-95 -96 0
94 95 96 0
-97 -98 0
-97 -99 0
-98 -99 0
97 98 99 0
-100 -101 0
-100 -102 0
-101 -102 0
100 101 102 0
-103 -104 0
-103 -105 0
-104 -105 0
103 104 105 0
-106 -107 0
-106 -108 0
-107 -108 0
106 107 108 0
-109 -110 0
-109 -111 0
-110 -111 0
109 110 111 0
-112 -113 0
-112 -114 0
-113 -114 0
112 113 114 0
-115 -116 0
-115 -117 0
-116 -117 0
115 116 117 0
-118 -119 0
-118 -120 0
-119 -120 0
118 119 120 0
-121 -122 0
-121 -123 0
-122 -123 0
121 122 123 0
-124 -125 0
-124 -126 0
-125 -126 0
124 125 126 0
-127 -128 0
-127 -129 0
-128 -129 0
127 128 129 0
-130 -131 0
-130 -132 0
-131 -132 0
130 131 132 0
-133 -134 0
-133 -135 0
-134 -135 0
133 134 135 0
-136 -137 0
-136 -138 0
-137 -138 0
136 137 138 0
-139 -140 0
-139 -141 0
-140 -141 0
139 140 141 0
-142 -143 0
-142 -144 0
-143 -144 0
142 143 144 0
-145 -146 0
-145 -147 0
-146 -147 0
145 146 147 0
-148 -149 0
-148 -150 0
-149 -150 0
148 149 150 0
-61 -1 0
-62 -2 0
-63 -3 0
-148 -1 0
-149 -2 0
-150 -3 0
-67 -4 0
-68 -5 0
-69 -6 0
-73 -4 0
-74 -5 0
-75 -6 0
-82 -4 0
-83 -5 0
-84 -6 0
-97 -4 0
-98 -5 0
-99 -6 0
-115 -4 0
-116 -5 0
-117 -6 0
-124 -4 0
-125 -5 0
-126 -6 0
-130 -4 0
-131 -5 0
-132 -6 0
-58 -7 0
-59 -8 0
-60 -9 0
-64 -7 0
-65 -8 0
-66 -9 0
-79 -7 0
-80 -8 0
-81 -9 0
-115 -7 0
-116 -8 0
-117 -9 0
-70 -10 0
-71 -11 0
-72 -12 0
-91 -10 0
-92 -11 0
-93 -12 0
-115 -10 0
-116 -11 0
-117 -12 0
-133 -10 0
-134 -11 0
-135 -12 0
-145 -10 0
-146 -11 0
-147 -12 0
-55 -13 0
-56 -14 0
-57 -15 0
-61 -13 0
-62 -14 0
-63 -15 0
-64 -13 0
-65 -14 0
-66 -15 0
-100 -13 0
-101 -14 0
-102 -15 0
-130 -13 0
-131 -14 0
-132 -15 0
-82 -16 0
-83 -17 0
-84 -18 0
-109 -16 0
-110 -17 0
-111 -18 0
-136 -16 0
-137 -17 0
-138 -18 0
-142 -16 0
-143 -17 0
-144 -18 0
-73 -19 0
-74 -20 0
-75 -21 0
-118 -19 0
-119 -20 0
-120 -21 0
-130 -19 0
-131 -20 0
-132 -21 0
-133 -19 0
-134 -20 0
-135 -21 0
-139 -19 0
-140 -20 0
-141 -21 0
-67 -22 0
-68 -23 0
-69 -24 0
-103 -22 0
-104 -23 0
-105 -24 0
-130 -22 0
-131 -23 0
-132 -24 0
-70 -25 0
-71 -26 0
-72 -27 0
-82 -25 0
-83 -26 0
-84 -27 0
-97 -25 0
-98 -26 0
-99 -27 0
-112 -25 0
-113 -26 0
-114 -27 0
-136 -25 0
-137 -26 0
-138 -27 0
-139 -25 0
-140 -26 0
-141 -27 0
-145 -25 0
-146 -26 0
-147 -27 0
-52 -28 0
-53 -29 0
-54 -30 0
-55 -28 0
-56 -29 0
-57 -30 0
-70 -28 0
-71 -29 0
-72 -30 0
-100 -28 0
-101 -29 0
-102 -30 0
-148 -28 0
-149 -29 0
-150 -30 0
-91 -31 0
-92 -32 0
-93 -33 0
-94 -31 0
-95 -32 0
-96 -33 0
-109 -31 0
-110 -32 0
-111 -33 0
-133 -31 0
-134 -32 0
-135 -33 0
-136 -31 0
-137 -32 0
-138 -33 0
-61 -34 0
-62 -35 0
-63 -36 0
-100 -34 0
-101 -35 0
-102 -36 0
-118 -34 0
-119 -35 0
-120 -36 0
-52 -37 0
-53 -38 0
-54 -39 0
-55 -37 0
-56 -38 0
-57 -39 0
-58 -37 0
-59 -38 0
-60 -39 0
-94 -37 0
-95 -38 0
-96 -39 0
-52 -40 0
-53 -41 0
-54 -42 0
-58 -40 0
-59 -41 0
-60 -42 0
-109 -40 0
-110 -41 0
-111 -42 0
-121 -40 0
-122 -41 0
-123 -42 0
-127 -40 0
-128 -41 0
-129 -42 0
-91 -43 0
-92 -44 0
-93 -45 0
-118 -43 0
-119 -44 0
-120 -45 0
-67 -46 0
-68 -47 0
-69 -48 0
-70 -46 0
-71 -47 0
-72 -48 0
-100 -46 0
-101 -47 0
-102 -48 0
-136 -46 0
-137 -47 0
-138 -48 0
-142 -46 0
-143 -47 0
-144 -48 0
-145 -46 0
-146 -47 0
-147 -48 0
-148 -46 0
-149 -47 0
-150 -48 0
-61 -49 0
-62 -50 0
-63 -51 0
-85 -49 0
-86 -50 0
-87 -51 0
-124 -49 0
-125 -50 0
-126 -51 0
-133 -49 0
-134 -50 0
-135 -51 0
-139 -49 0
-140 -50 0
-141 -51 0
-136 -52 0
-137 -53 0
-138 -54 0
-142 -52 0
-143 -53 0
-144 -54 0
-118 -55 0
-119 -56 0
-120 -57 0
-148 -55 0
-149 -56 0
-150 -57 0
-103 -58 0
-104 -59 0
-105 -60 0
-106 -58 0
-107 -59 0
-108 -60 0
-139 -58 0
-140 -59 0
-141 -60 0
-142 -61 0
-143 -62 0
-144 -63 0
-133 -64 0
-134 -65 0
-135 -66 0
-109 -67 0
-110 -68 0
-111 -69 0
-115 -67 0
-116 -68 0
-117 -69 0
-148 -67 0
-149 -68 0
-150 -69 0
-121 -70 0
-122 -71 0
-123 -72 0
-124 -70 0
-125 -71 0
-126 -72 0
-127 -70 0
-128 -71 0
-129 -72 0
-106 -73 0
-107 -74 0
-108 -75 0
-118 -73 0
-119 -74 0
-120 -75 0
-121 -73 0
-122 -74 0
-123 -75 0
-103 -79 0
-104 -80 0
-105 -81 0
-130 -79 0
-131 -80 0
-132 -81 0
-136 -79 0
-137 -80 0
-138 -81 0
-133 -82 0
-134 -83 0
-135 -84 0
-112 -85 0
-113 -86 0
-114 -87 0
-133 -85 0
-134 -86 0
-135 -87 0
-121 -88 0
-122 -89 0
-123 -90 0
-136 -88 0
-137 -89 0
-138 -90 0
-106 -91 0
-107 -92 0
-108 -93 0
-109 -91 0
-110 -92 0
-111 -93 0
-112 -91 0
-113 -92 0
-114 -93 0
-127 -91 0
-128 -92 0
-129 -93 0
-103 -94 0
-104 -95 0
-105 -96 0
-136 -94 0
-137 -95 0
-138 -96 0
-145 -94 0
-146 -95 0
-147 -96 0
-148 -97 0
-149 -98 0
-150 -99 0
-115 -100 0
-116 -101 0
-117 -102 0
-121 -100 0
-122 -101 0
-123 -102 0
-142 -100 0
-143 -101 0
-144 -102 0
